12
0 43 90 43 65 12 83 57 19 40 34 48 
70 0 91 27 48 39 69 98 61 14 87 2 
7 1 0 4 72 41 27 82 40 4 54 37 
33 86 100 0 21 29 14 2 88 28 75 53 
35 15 29 56 0 85 59 26 22 32 9 33 
46 27 57 87 76 0 87 60 42 66 90 63 
55 35 84 8 79 2 0 88 86 62 74 99 
56 23 45 40 50 85 70 0 4 43 82 8 
38 74 85 68 1 48 42 57 0 88 9 15 
38 23 83 23 32 69 79 13 18 0 29 50 
22 61 92 43 39 51 59 69 23 7 0 57 
55 60 22 16 25 71 12 33 90 69 90 0 
